c ---- [ banner ] ------------------------------------------------------------
c
c Kissat SAT Solver
c 
c Copyright (c) 2021-2023 Armin Biere University of Freiburg
c Copyright (c) 2019-2021 Armin Biere Johannes Kepler University Linz
c 
c Version 3.1.1 71caafb4d182ced9f76cef45b00f37cc598f2a37
c Apple clang version 14.0.0 (clang-1400.0.29.202) -W -Wall -O3 -DNDEBUG
c Wed Mar 20 10:02:55 GMT 2024 Darwin Lukes-MBP-2 22.1.0 arm64
c
c ---- [ parsing ] -----------------------------------------------------------
c
c opened and reading DIMACS file:
c
c   temp.cnf
c
c parsed 'p cnf 1 24' header
c closing input after reading 95 bytes
c finished parsing after 0.00 seconds
c
c ---- [ solving ] -----------------------------------------------------------
c
c  seconds switched conflicts irredundant variables
c         MB reductions redundant  trail remaining
c          level restarts   binary    glue
c
c *  0.00  1 0 0 0  0   0   0   0  0 0% 0  0 0%
c {  0.00  1 0 0 0  0   0   0   0  0 0% 0  0 0%
c }  0.00  1 0 0 0  0   0   0   0  0 0% 0  0 0%
c 0  0.00  1 0 0 0  0   0   0   0  0 0% 0  0 0%
c
c ---- [ result ] ------------------------------------------------------------
c
s UNSATISFIABLE
c
c ---- [ profiling ] ---------------------------------------------------------
c
c           0.00   18.12 %  parse
c           0.00   15.00 %  search
c           0.00    6.25 %  focused
c           0.00    0.00 %  simplify
c =============================================
c           0.00  100.00 %  total
c
c ---- [ statistics ] --------------------------------------------------------
c
c conflicts:                                0                0.00 per second
c decisions:                                0                0.00 per conflict
c propagations:                             1              818    per second
c queue_decisions:                          0                0 %  decision
c random_decisions:                         0                0 %  decision
c random_sequences:                         0                0    interval
c score_decisions:                          0                0 %  decision
c switched:                                 0                0    interval
c vivify_checks:                            0                0    per vivify
c vivify_units:                             0                0 %  variables
c
c ---- [ resources ] ---------------------------------------------------------
c
c maximum-resident-set-size:       1392508928 bytes       1328 MB
c process-time:                                              0.00 seconds
c
c ---- [ shutting down ] -----------------------------------------------------
c
c exit 20
